SCIP version 5.0.0 [precision: 8 byte] [memory: block] [mode: optimized] [LP solver: NONE] [GitHash: 3bbd232]
Copyright (C) 2002-2017 Konrad-Zuse-Zentrum fuer Informationstechnik Berlin (ZIB)

External codes: 
  Readline EditLine w  GNU library for command line editing (gnu.org/s/readline)
  CppAD 20160000.1     Algorithmic Differentiation of C++ algorithms developed by B. Bell (www.coin-or.org/CppAD)
  ZLIB 1.2.5           General purpose compression library by J. Gailly and M. Adler (zlib.net)
  GMP 6.1.2            GNU Multiple Precision Arithmetic Library developed by T. Granlund (gmplib.org)

user parameter file <scip.set> not found - using default parameters

read problem <../../Split_data/output/statG/1/1_sample_statG.logreg>
============

File name	:	../../Split_data/output/statG/1/1_sample_statG.logreg
Problem name 	:	1_sample_statG
Number of data	:	800
Number of var	:	61
The given data has linear dependence
13 sets of column vector are linearly dependent:

[dim=1] time: 0.054601
[dim=2] time: 0.109493
[dim=3] time: 0.159314
[dim=4] time: 0.211329
[dim=5] time: 0.251264
[dim=6] time: 0.290048
[dim=7] time: 0.330182
[dim=8] time: 0.37033
[dim=9] time: 0.412619
[dim=10] time: 0.455096
[dim=11] time: 0.505878
[dim=12] time: 0.546478
[dim=13] time: 0.58928
[dim=14] time: 0.637651
[dim=15] time: 0.684935
[dim=16] time: 0.728918
[dim=17] time: 0.771976
[dim=18] time: 0.82884
[dim=19] time: 0.875262
[dim=20] time: 0.914414
[dim=21] time: 0.950902
[dim=22] time: 0.986911
[dim=23] Time of forward = 1.02294sec.
AIC: 759.922
k: 22

[dim=48] time: 0.117825
[dim=47] time: 0.189659
[dim=46] time: 0.264945
[dim=45] time: 0.327334
[dim=44] time: 0.390815
[dim=43] time: 0.464983
[dim=42] time: 0.523109
[dim=41] time: 0.577697
[dim=40] time: 0.629905
[dim=39] time: 0.680289
[dim=38] time: 0.737001
[dim=37] time: 0.802632
[dim=36] time: 0.851211
[dim=35] time: 0.894686
[dim=34] time: 0.947067
[dim=33] time: 0.98907
[dim=32] time: 1.0252
[dim=31] time: 1.06699
[dim=30] time: 1.09809
[dim=29] time: 1.12932
[dim=28] time: 1.16367
[dim=27] time: 1.18617
[dim=26] Time of backward = 1.21815sec.
AIC: 764.245
k: 27
